Maximize
  16 u1 + 10 u2 + 11 u3 + 13 u4 + 17 u5 + 11 u6 + 19 u7 + 18 u8 + 10 u9
   + 15 u10 + 19 u11 + 19 u12 + 16 u13 + 18 u14 + 16 u15 + 10 u16 + 18 u17
   + 15 u18 + 14 u19 + 15 u20
Subject To
 R0: 475 u1 <= 17
 R1: 501 u2 <= 15
 R2: 519 u3 <= 14
 R3: 538 u4 <= 11
 R4: 487 u5 <= 15
 R5: 525 u6 <= 13
 R6: 599 u7 <= 16
 R7: 562 u8 <= 18
 R8: 516 u9 <= 15
 R9: 621 u10 <= 18
 R10: 574 u11 <= 18
 R11: 572 u12 <= 11
 R12: 458 u13 <= 16
 R13: 493 u14 <= 19
 R14: 552 u15 <= 15
 R15: 498 u16 <= 12
 R16: 552 u17 <= 10
 R17: 550 u18 <= 10
 R18: 650 u19 <= 14
 R19: 602 u20 <= 16
Bounds
End
